6 48 4 10
2 1 13 18 12 18 4 19 9 4 16 16 15 20 9 7 9 18 13 17 13 2 11 11 1 4 11 9 6 15 17 11 7 11 2 3 17 19 18 1 2 16 4 20 9 4 10 2 
13.42 9.13 2.05 6.25 1.57 0.16 13.37 10.04 7.65 13.03 2.02 5.42 14.29 0.53 15.22 9.4 0.65 0.79 6.26 4.21 0.4 11.67 0.35 3.24 3.06 9.92 4.74 0.92 9.81 13.83 8.55 11.57 8.45 11.74 13.98 8.48 11.34 0.76 8.97 9.28 8.52 12.7 3.08 3.82 5.62 4.93 4.77 4.77 
12.63 2.16 14.53 11.63 8.02 11.39 6.65 13.92 4 14.41 6.51 3.3 12.38 9.74 6.23 3.47 11.12 2.04 3.03 5.76 8.96 1.69 9.07 15.25 1.76 3.98 15.22 9.22 14.64 15.31 2.26 2.24 10.57 12.63 0.2 15.25 7.59 14.09 8.4 0.76 11.77 4.27 14.77 5.25 11.73 7.2 0.89 10.72 
7.67 1.92 5.17 13.7 5.79 3.8 8.33 6.12 12.68 11.89 15.83 6.78 5.69 7.21 4.88 7.73 9.72 0.92 12.37 6.4 2.1 1.69 13.11 8.89 11.35 8.21 1.31 10.64 9.89 4.17 13.9 3.77 2.65 8.49 13.43 2.29 7.04 11.81 6.03 15.5 11 12.33 13.58 9.86 15.07 13.99 5.66 13.72 
1.32 5.42 1.8 11.3 10.04 13.17 0.28 10.92 0.2 5.03 10.88 5.1 5.81 5.84 1.84 10.05 1.01 2.69 11 4.65 15.58 8.03 8.22 10.92 1.5 14.98 13.35 13.01 5.4 14.49 9.26 7.19 13.52 8.94 3.55 2.39 2.9 9.66 11.7 3.37 15.49 8.79 2.32 3.45 5.5 4.47 9.27 1.85 
8 8 8 8 8 8 8 8 8 8 8 8 8 8 8 8 8 8 8 8 8 8 8 8 8 8 8 8 8 8 8 8 8 8 8 8 8 8 8 8 8 8 8 8 8 8 8 8 
2.58 3.14 9.05 6.6 5.91 15.15 12.21 14.96 3.4 8.15 5.25 15.95 2.33 10.09 0.36 13.32 3.82 6.93 1.07 1.47 10.57 9.44 7.1 8.2 10.42 4.05 9.33 10.18 14.17 7.56 7.35 5.38 9.36 8.44 15.66 8.21 5.75 7.09 13.44 12.03 10.91 5.02 3 8.35 5.87 4.01 6.49 5.43 
1 1 1 1 1 1 1 1 1 1 1 1 1 1 1 1 1 1 1 1 1 1 1 1 1 1 1 1 1 1 1 1 1 1 1 1 1 1 1 1 1 1 1 1 1 1 1 1 
1 1 1 1 1 1 1 1 1 1 1 1 1 1 1 1 1 1 1 1 1 1 1 1 1 1 1 1 1 1 1 1 1 1 1 1 1 1 1 1 1 1 1 1 1 1 1 1 
1 1 1 1 1 1 1 1 1 1 1 1 1 1 1 1 1 1 1 1 1 1 1 1 1 1 1 1 1 1 1 1 1 1 1 1 1 1 1 1 1 1 1 1 1 1 1 1 
1 1 1 1 1 1 1 1 1 1 1 1 1 1 1 1 1 1 1 1 1 1 1 1 1 1 1 1 1 1 1 1 1 1 1 1 1 1 1 1 1 1 1 1 1 1 1 1 
1 1 1 1 1 1 1 1 1 1 1 1 1 1 1 1 1 1 1 1 1 1 1 1 1 1 1 1 1 1 1 1 1 1 1 1 1 1 1 1 1 1 1 1 1 1 1 1 
1 1 1 1 1 1 1 1 1 1 1 1 1 1 1 1 1 1 1 1 1 1 1 1 1 1 1 1 1 1 1 1 1 1 1 1 1 1 1 1 1 1 1 1 1 1 1 1 
0.01 0.01 0.01 0.01 0.01 0.01 0.01 0.01 0.01 0.01 0.01 0.01 0.01 0.01 0.01 0.01 0.01 0.01 0.01 0.01 0.01 0.01 0.01 0.01 0.01 0.01 0.01 0.01 0.01 0.01 0.01 0.01 0.01 0.01 0.01 0.01 0.01 0.01 0.01 0.01 0.01 0.01 0.01 0.01 0.01 0.01 0.01 0.01 
0.02 0.02 0.02 0.02 0.02 0.02 0.02 0.02 0.02 0.02 0.02 0.02 0.02 0.02 0.02 0.02 0.02 0.02 0.02 0.02 0.02 0.02 0.02 0.02 0.02 0.02 0.02 0.02 0.02 0.02 0.02 0.02 0.02 0.02 0.02 0.02 0.02 0.02 0.02 0.02 0.02 0.02 0.02 0.02 0.02 0.02 0.02 0.02 
0.03 0.03 0.03 0.03 0.03 0.03 0.03 0.03 0.03 0.03 0.03 0.03 0.03 0.03 0.03 0.03 0.03 0.03 0.03 0.03 0.03 0.03 0.03 0.03 0.03 0.03 0.03 0.03 0.03 0.03 0.03 0.03 0.03 0.03 0.03 0.03 0.03 0.03 0.03 0.03 0.03 0.03 0.03 0.03 0.03 0.03 0.03 0.03 
0.04 0.04 0.04 0.04 0.04 0.04 0.04 0.04 0.04 0.04 0.04 0.04 0.04 0.04 0.04 0.04 0.04 0.04 0.04 0.04 0.04 0.04 0.04 0.04 0.04 0.04 0.04 0.04 0.04 0.04 0.04 0.04 0.04 0.04 0.04 0.04 0.04 0.04 0.04 0.04 0.04 0.04 0.04 0.04 0.04 0.04 0.04 0.04 
0.05 0.05 0.05 0.05 0.05 0.05 0.05 0.05 0.05 0.05 0.05 0.05 0.05 0.05 0.05 0.05 0.05 0.05 0.05 0.05 0.05 0.05 0.05 0.05 0.05 0.05 0.05 0.05 0.05 0.05 0.05 0.05 0.05 0.05 0.05 0.05 0.05 0.05 0.05 0.05 0.05 0.05 0.05 0.05 0.05 0.05 0.05 0.05 
1 1 1 1 1 1 1 1 1 1 1 1 1 1 1 1 1 1 1 1 1 1 1 1 1 1 1 1 1 1 1 1 1 1 1 1 1 1 1 1 1 1 1 1 1 1 1 1 
